h = 8;
w = 8;
n_pieces = 4;
n_shapes = 6;
shape = [{1}, {2}, {3}, {4}, {5}, {6}];
shape_index = [{1}, {2, 3}, {4, 5}, {6}];
rect_rep = [1, 1, 1, 1];
rect_copies = 4;
coordinate_shapes = [0, 1, 2, 3];
rect_size = [|3, 3
|3, 5
|5, 3
|5, 3
|3, 5
|5, 5
|];
rect_offset = [|0, 0
|0, 0
|0, 0
|0, 0
|0, 0
|0, 0
|];
rectangles = [|3, 3
|3, 5
|5, 3
|5, 5
|];
